NAME: line_100_7
TYPE: TSP
COMMENT: line_100_7
DIMENSION: 100
EDGE_WEIGHT_TYPE: EUC_2D
NODE_COORD_SECTION
1 0.0 168.0
2 0.0 776.0
3 0.0 476.0
4 0.0 269.0
5 0.0 559.0
6 0.0 468.0
7 0.0 620.0
8 0.0 586.0
9 0.0 139.0
10 0.0 230.0
11 0.0 389.0
12 0.0 261.0
13 0.0 695.0
14 0.0 571.0
15 0.0 549.0
16 0.0 998.0
17 0.0 218.0
18 0.0 990.0
19 0.0 518.0
20 0.0 112.0
21 0.0 138.0
22 0.0 102.0
23 0.0 473.0
24 0.0 566.0
25 0.0 710.0
26 0.0 646.0
27 0.0 470.0
28 0.0 277.0
29 0.0 854.0
30 0.0 900.0
31 0.0 651.0
32 0.0 573.0
33 0.0 569.0
34 0.0 176.0
35 0.0 180.0
36 0.0 599.0
37 0.0 537.0
38 0.0 9.0
39 0.0 968.0
40 0.0 472.0
41 0.0 640.0
42 0.0 65.0
43 0.0 290.0
44 0.0 955.0
45 0.0 678.0
46 0.0 81.0
47 0.0 210.0
48 0.0 63.0
49 0.0 758.0
50 0.0 761.0
51 0.0 347.0
52 0.0 781.0
53 0.0 818.0
54 0.0 84.0
55 0.0 849.0
56 0.0 920.0
57 0.0 532.0
58 0.0 817.0
59 0.0 991.0
60 0.0 731.0
61 0.0 206.0
62 0.0 301.0
63 0.0 622.0
64 0.0 353.0
65 0.0 673.0
66 0.0 961.0
67 0.0 188.0
68 0.0 263.0
69 0.0 50.0
70 0.0 739.0
71 0.0 595.0
72 0.0 154.0
73 0.0 15.0
74 0.0 329.0
75 0.0 968.0
76 0.0 92.0
77 0.0 622.0
78 0.0 319.0
79 0.0 947.0
80 0.0 410.0
81 0.0 210.0
82 0.0 541.0
83 0.0 619.0
84 0.0 126.0
85 0.0 304.0
86 0.0 690.0
87 0.0 873.0
88 0.0 185.0
89 0.0 435.0
90 0.0 702.0
91 0.0 691.0
92 0.0 769.0
93 0.0 184.0
94 0.0 328.0
95 0.0 549.0
96 0.0 278.0
97 0.0 891.0
98 0.0 193.0
99 0.0 269.0
100 0.0 470.0
